120
150
46
58
70
42
78
33
46
39
38
71
78
62
61
97
21
31
52
60
38
87
20
48
32
92
49
40
42
27
21
65
84
36
60
23
71
23
58
92
84
65
25
64
89
43
99
36
51
43
97
53
31
58
49
42
51
99
92
78
92
36
74
76
31
58
48
56
86
64
46
69
33
48
36
97
70
73
83
65
95
24
47
25
49
36
65
65
84
55
30
84
65
65
31
79
99
93
71
46
71
79
51
27
52
98
74
33
51
40
84
65
59
43
53
97
84
92
65
58
48
99
